mode: 3, sl: 0, sr: 0, revisit: 1, loop: 1
Jetsuite speed factor: 8.41
Solving mode: 3-indexed base
Solving mode: 3-indexed base
Instance name: /home/orlab/rv-fstsp2/rv-fstsp-jetsuite/Niels_instances/output_with_jetsuite//uniform-58-n10-maxradius-150.txt
---------------------------------------------------------------
Current config:
- Number of threads = -1
- Drone endurance = 9999
- SL = 0
- SR = 0
- Allow loop = 1
- Allow revisit = 1
- Allow multi-visit drone = 0
- Use TSP optimal solution as warmstart: = 0
- Use cutting plane method: = 0
- Use CPLEX conflict refiner: = 0
- Debug info: = 0
- Jetsuit enabled: = 0
---------------------------------------------------------------
Version identifier: 22.1.1.0 | 2022-11-28 | 9160aff4d
Tried aggregator 2 times.
MIP Presolve eliminated 1114 rows and 2171 columns.
MIP Presolve modified 1415 coefficients.
Aggregator did 9 substitutions.
Reduced MIP has 1249 rows, 3780 columns, and 30893 nonzeros.
Reduced MIP has 3760 binaries, 0 generals, 0 SOSs, and 0 indicators.
Presolve time = 0.02 sec. (44.34 ticks)
Found incumbent of value 90936.874832 after 0.03 sec. (67.93 ticks)
Probing fixed 54 vars, tightened 18 bounds.
Probing changed sense of 4 constraints.
Probing time = 0.08 sec. (186.21 ticks)
Cover probing fixed 0 vars, tightened 22 bounds.
Tried aggregator 2 times.
Detecting symmetries...
MIP Presolve eliminated 53 rows and 121 columns.
MIP Presolve modified 2616 coefficients.
Aggregator did 12 substitutions.
Reduced MIP has 1181 rows, 3647 columns, and 30191 nonzeros.
Reduced MIP has 3634 binaries, 0 generals, 0 SOSs, and 0 indicators.
Presolve time = 0.02 sec. (50.37 ticks)
Probing time = 0.01 sec. (7.77 ticks)
Cover probing fixed 0 vars, tightened 3 bounds.
Clique table members: 14637.
MIP emphasis: balance optimality and feasibility.
MIP search method: dynamic search.
Parallel mode: deterministic, using up to 20 threads.
Root relaxation solution time = 0.09 sec. (183.34 ticks)

        Nodes                                         Cuts/
   Node  Left     Objective  IInf  Best Integer    Best Bound    ItCnt     Gap

*     0+    0                        90936.8748       20.1899            99.98%
      0     0       42.3171   103    90936.8748       42.3171     2382   99.95%
*     0+    0                          294.6541       42.3171            85.64%
*     0+    0                          235.3659       42.3171            82.02%
      0     0       73.2631   133      235.3659      Cuts: 35     4318   68.87%
      0     0       73.2631   126      235.3659      Cuts: 43     4668   68.87%
*     0+    0                          230.6984       73.2631            68.24%
      0     0       73.2631   114      230.6984      Cuts: 37     5272   68.24%
      0     0       73.2631   115      230.6984      Cuts: 12     5615   68.24%
*     0+    0                          229.9485       73.2631            68.14%
      0     0       73.5289   125      229.9485      Cuts: 19     9183   67.97%
Detecting symmetries...
      0     0       73.5674   117      229.9485      Cuts: 50     9795   67.97%
*     0+    0                          227.5506       73.6465            67.64%
*     0+    0                          226.2128       73.6465            67.44%
      0     0       73.6530   130      226.2128      Cuts: 23    10202   67.44%
      0     0       73.6769   116      226.2128      Cuts: 13    10261   67.43%
      0     0       73.7073   124      226.2128      Cuts: 12    10503   67.42%
      0     0       73.7267   119      226.2128      Cuts: 15    10724   67.41%
*     0+    0                          222.5063       73.7267            66.87%
*     0+    0                          214.2142       73.7267            65.58%
      0     0       73.9155   205      214.2142      Cuts: 18    13766   65.49%
      0     0       73.9599   181      214.2142      Cuts: 43    13920   65.47%
      0     0       73.9926   190      214.2142      Cuts: 35    14175   65.46%
*     0+    0                          202.7861       73.9926            63.51%
      0     0       74.0059   197      202.7861      Cuts: 44    14526   56.33%
Detecting symmetries...
      0     2       74.0059   168      202.7861       88.5603    14526   56.33%
Elapsed time = 2.78 sec. (3794.00 ticks, tree = 0.02 MB, solutions = 10)
    345    89        cutoff            202.7861       88.5603    36322   56.33%
   1110   410        cutoff            202.7861       88.5603    88122   56.33%
   1408   562      193.7128    35      202.7861       88.5603   126033   56.33%
   1710   613      133.7495    84      202.7861       88.5603   136584   56.33%
   2462  1085      159.4808    53      202.7861       88.5603   186977   56.33%
   3226  1466      182.6600    47      202.7861       88.5603   236632   56.33%
   3750  1852        cutoff            202.7861       88.5603   285663   56.33%
   3866  1896        cutoff            202.7861       88.5603   302092   56.33%
   4206  2061      107.1121   126      202.7861       88.5603   339973   56.33%
   5391  2844      155.6721    94      202.7861       88.5603   515524   56.33%
Elapsed time = 6.42 sec. (6897.57 ticks, tree = 27.63 MB, solutions = 10)
   6926  3409      140.2151   119      202.7861       90.4649   610804   55.39%

Performing restart 1

Repeating presolve.
Tried aggregator 2 times.
MIP Presolve eliminated 92 rows and 43 columns.
MIP Presolve modified 12534 coefficients.
Aggregator did 1 substitutions.
Reduced MIP has 1088 rows, 3603 columns, and 23181 nonzeros.
Reduced MIP has 3591 binaries, 0 generals, 0 SOSs, and 0 indicators.
Presolve time = 0.02 sec. (29.11 ticks)
Tried aggregator 1 time.
MIP Presolve eliminated 10 rows and 2 columns.
MIP Presolve modified 86 coefficients.
Reduced MIP has 1078 rows, 3601 columns, and 22950 nonzeros.
Reduced MIP has 3589 binaries, 0 generals, 0 SOSs, and 0 indicators.
Presolve time = 0.02 sec. (18.39 ticks)
Represolve time = 0.19 sec. (209.86 ticks)
   6929     0       82.2626   260      202.7861      Cuts: 32   705412   55.15%
   6929     0       85.3180   236      202.7861      Cuts: 62   708782   55.15%
   6929     0       85.3180   261      202.7861      Cuts: 29   709131   55.15%
   6929     0       85.3180   201      202.7861    MIRcuts: 3   709143   55.15%
   6929     0       85.3180   239      202.7861      Cuts: 33   709590   55.15%
   6929     0       85.3180   187      202.7861       Cuts: 6   709725   55.15%
   6929     0       85.3180   228      202.7861      Cuts: 45   710162   55.15%
   6929     0       85.3180   191      202.7861       Cuts: 6   710330   43.38%
   6929     0       85.3334   187      202.7861      Cuts: 48   710695   43.38%
   6929     2       85.3334   187      202.7861      114.8207   710695   43.38%
   6936     8      143.8998    92      202.7861      114.8207   719565   43.38%
   7099    59        cutoff            202.7861      114.8207   738041   43.38%
   7752   228      180.5732    73      202.7861      114.8207   781859   43.38%
   8566   579      185.5073   104      202.7861      114.8207   862460   43.38%
   9106  1027      173.0004   123      202.7861      114.8207   933377   43.38%
  10634  1151        cutoff            202.7861      114.8207   966567   43.38%
* 11476+ 1748                          199.9901      114.8207            42.59%
  13031  2568      192.0584    58      199.9901      151.8542  1176998   24.07%
  13618  3157      185.6897    96      199.9901      153.9288  1326119   23.03%
Elapsed time = 20.86 sec. (20766.77 ticks, tree = 28.11 MB, solutions = 11)
  15544  3609      193.7921   106      199.9901      154.0008  1435202   23.00%
  16503  4062      195.6174    72      199.9901      160.2719  1614253   19.86%
  17235  3905        cutoff            199.9901      166.3578  1696016   16.82%
  17956  3754        cutoff            199.9901      171.4652  1750795   14.26%
  18811  3554    infeasible            199.9901      172.5200  1827104   13.74%
  20835  3350        cutoff            199.9901      178.5437  1956212   10.72%
  22497  2936        cutoff            199.9901      181.3761  2047251    9.31%
  25969  1144    infeasible            199.9901      182.9806  2198675    8.51%
  27408    23      188.1181   117      199.9901      188.2470  2238000    5.87%

Cover cuts applied:  21
Implied bound cuts applied:  4
Flow cuts applied:  3
Mixed integer rounding cuts applied:  11
Zero-half cuts applied:  7
Gomory fractional cuts applied:  3

Root node processing (before b&c):
  Real time             =    2.71 sec. (3709.49 ticks)
Parallel b&c, 20 threads:
  Real time             =   31.48 sec. (25784.86 ticks)
  Sync time (average)   =   10.90 sec.
  Wait time (average)   =    0.01 sec.
                          ------------
Total (root+branch&cut) =   34.19 sec. (29494.35 ticks)
Solve time: 34.2
Objective Value: 199.99

Truck Schedule: 
Stage 1: Truck arrived node 0 at 0
	Truck departed from node 0 to node 7 at 0
Stage 2: Truck arrived node 7 at 44.1104
	Truck departed from node 7 to node 7 at 44.1104
Stage 3: Truck arrived node 7 at 44.1104
	Truck departed from node 7 to node 7 at 70.1104
Stage 4: Truck arrived node 7 at 70.1104
	Truck departed from node 7 to node 7 at 110.273
Stage 5: Truck arrived node 7 at 110.273
	Truck departed from node 7 to node 10 at 155.88
Stage 6: Truck arrived node 10 at 199.99

Truck arc:
Stage 1: 0 -> 7
Stage 2: 7 -> 7
Stage 3: 7 -> 7
Stage 4: 7 -> 7
Stage 5: 7 -> 10

Drone Schedule: 
Stage 1 to 2: Drone departed from node 0 visited customer 5 and arrived to node 7
	 Departed at: 0
	 Visited at: 10.0949
	 Arrived at: 29.1212
Added drone operation: position 0 (node 0) -> customer 5 -> position 1 (node 7)
Stage 2 to 3: Drone departed from node 7 visited customer 8 and arrived to node 7
	 Departed at: 44.1104
	 Visited at: 57.1104
	 Arrived at: 70.1104
Added drone operation: position 1 (node 7) -> customer 8 -> position 2 (node 7)
Stage 3 to 4: Drone departed from node 7 visited customer 2 and arrived to node 7
	 Departed at: 70.1104
	 Visited at: 90.1915
	 Arrived at: 110.273
Added drone operation: position 2 (node 7) -> customer 2 -> position 3 (node 7)
Stage 4 to 5: Drone departed from node 7 visited customer 1 and arrived to node 7
	 Departed at: 110.273
	 Visited at: 133.076
	 Arrived at: 155.88
Added drone operation: position 3 (node 7) -> customer 1 -> position 4 (node 7)
Stage 5 to 6: Drone departed from node 7 visited customer 4 and arrived to node 10
	 Departed at: 155.88
	 Visited at: 169.772
	 Arrived at: 194.562
Added drone operation: position 4 (node 7) -> customer 4 -> position 5 (node 10)

Jetsuite Schedule: 
Stage 2: Jetsuite launched from node 7 served customer 9 and recovered at node 7
Stage 3: Jetsuite launched from node 7 served customer 6 and recovered at node 7
Stage 4: Jetsuite launched from node 7 served customer 3 and recovered at node 7
x[0][7][1] = 1
x[7][7][2] = 1
x[7][7][3] = 1
x[7][7][4] = 1
x[7][10][5] = 1

Drone Variables (V[i][h][k]):
Y[0][5][1] = 1
Y[7][1][4] = 1
Y[7][2][3] = 1
Y[7][4][5] = 1
Y[7][8][2] = 1

Jetsuite Variables (U[i][h][k]):
U[7][3][4] = 1
U[7][6][3] = 1
U[7][9][2] = 1

Checking the feasibility of the solution...
Time schedule is not given, recalculating...
The objective matches the recalculated objective
The solution is feasible
